
******************************************************************************
This program contains Ipopt, a library for large-scale nonlinear optimization.
 Ipopt is released as open source code under the Eclipse Public License (EPL).
         For more information visit http://projects.coin-or.org/Ipopt
******************************************************************************

This is Ipopt version 3.12.6, running with linear solver ma57.

Number of nonzeros in equality constraint Jacobian...:        0
Number of nonzeros in inequality constraint Jacobian.:        6
Number of nonzeros in Lagrangian Hessian.............:       21

Total number of variables............................:        6
                     variables with only lower bounds:        0
                variables with lower and upper bounds:        0
                     variables with only upper bounds:        0
Total number of equality constraints.................:        0
Total number of inequality constraints...............:        1
        inequality constraints with only lower bounds:        1
   inequality constraints with lower and upper bounds:        0
        inequality constraints with only upper bounds:        0

iter    objective    inf_pr   inf_du lg(mu)  ||d||  lg(rg) alpha_du alpha_pr  ls
   0  1.5000000e+00 1.68e-01 1.21e+00  -1.0 0.00e+00    -  0.00e+00 0.00e+00   0
   1  2.5049250e-02 1.32e-01 1.72e-01  -1.0 5.76e-01    -  1.00e+00 1.00e+00f  1
   2  8.9352126e-03 1.33e-01 5.91e-01  -1.7 2.38e-01    -  1.00e+00 4.31e-01h  1
   3  1.2599130e-02 1.32e-01 1.59e+02  -1.7 1.71e+00    -  1.00e+00 1.18e-02h  1
   4  5.3475621e+00 0.00e+00 3.88e+01  -1.7 3.46e+00    -  1.00e+00 5.00e-01h  2
   5  1.7810306e+00 3.33e-02 1.68e+01  -1.7 1.71e+00    -  1.00e+00 5.00e-01f  2
   6  1.6994452e+00 7.72e-03 6.28e+00  -1.7 7.16e-02   2.0 1.00e+00 1.00e+00f  1
   7  1.5358531e+00 1.72e-03 2.79e+00  -1.7 5.66e-02   1.5 1.00e+00 1.00e+00f  1
   8  4.1891253e-01 4.17e-02 3.10e+00  -1.7 4.33e-01    -  1.00e+00 1.00e+00f  1
   9  5.0007234e-01 2.98e-02 5.65e+01  -1.7 1.54e-01   1.9 1.00e+00 3.21e-01h  1
iter    objective    inf_pr   inf_du lg(mu)  ||d||  lg(rg) alpha_du alpha_pr  ls
  10  7.6818590e-01 6.63e-03 2.04e+00  -1.7 1.41e-01   1.5 1.00e+00 1.00e+00h  1
  11  9.6034184e-01 2.03e-03 8.77e-01  -1.7 7.52e-02   1.0 1.00e+00 1.00e+00h  1
  12  1.1154873e+00 6.40e-04 6.04e-01  -1.7 5.20e-02   0.5 1.00e+00 1.00e+00h  1
  13  1.2506328e+00 1.67e-04 9.78e-01  -1.7 4.48e-02   0.0 1.00e+00 1.00e+00h  1
  14  1.3192270e+00 5.09e-05 1.98e+01  -1.7 2.19e-02   0.5 1.00e+00 9.38e-01h  1
  15  1.3756044e+00 0.00e+00 1.49e+00  -1.7 1.80e-02  -0.0 1.00e+00 1.00e+00f  1
  16  1.3647095e+00 0.00e+00 7.20e-02  -2.5 3.58e-03   1.3 1.00e+00 1.00e+00f  1
  17  1.3627101e+00 0.00e+00 1.11e-03  -3.8 6.13e-04    -  1.00e+00 1.00e+00f  1
  18  1.3626481e+00 0.00e+00 1.31e-04  -5.7 1.89e-05   0.8 1.00e+00 1.00e+00h  1
  19  1.3626462e+00 0.00e+00 2.01e-09  -8.6 5.79e-07    -  1.00e+00 1.00e+00h  1

Number of Iterations....: 19

                                   (scaled)                 (unscaled)
Objective...............:   1.3626462200178240e+00    1.3626462200178240e+00
Dual infeasibility......:   2.0074578666040566e-09    2.0074578666040566e-09
Constraint violation....:   0.0000000000000000e+00    0.0000000000000000e+00
Complementarity.........:   2.3788163105580323e-09    2.3788163105580323e-09
Overall NLP error.......:   2.2448424596747360e-10    2.3788163105580323e-09


Number of objective function evaluations             = 25
Number of objective gradient evaluations             = 20
Number of equality constraint evaluations            = 0
Number of inequality constraint evaluations          = 25
Number of equality constraint Jacobian evaluations   = 0
Number of inequality constraint Jacobian evaluations = 20
Number of Lagrangian Hessian evaluations             = 19
Total CPU secs in IPOPT (w/o function evaluations)   =      0.010
Total CPU secs in NLP function evaluations           =      0.050

EXIT: Optimal Solution Found.
Note: The following floating-point exceptions are signalling: IEEE_UNDERFLOW_FLAG IEEE_DENORMAL

************************ CUTEst statistics ************************


 Package used            :  IPOPT
 Problem                 :  HS92      
 # variables             =               6
 # constraints           =               1
 # objective functions   =        0.4600000E+02
 # objective gradients   =        0.2100000E+02
 # objective Hessians    =        0.2000000E+02
 # Hessian-vector prdct  =        0.0000000E+00
 # constraints functions =        0.4700000E+02
 # constraints gradients =        0.2200000E+02
 # constraints Hessians  =        0.2000000E+02
 Exit code               =               0
 Final f                 =   0.1362646E+01
 Set up time             =            0.00 seconds
 Solve time              =            0.17 seconds


******************************************************************

System Time =       0.0430000015 s.
